sby/slang/simple_immediate_assert_statement_pass/model/design_smt2.smt2
; SMT-LIBv2 description generated by Yosys 0.60+8 (git sha1 0e31e389f, clang++ 21.1.6 -fPIC -O3)
; yosys-smt2-module simple_immediate_assert_statement
(declare-sort |simple_immediate_assert_statement_s| 0)
(declare-fun |simple_immediate_assert_statement_is| (|simple_immediate_assert_statement_s|) Bool)
; yosys-smt2-anyseq simple_immediate_assert_statement#0 1 $auto$setundef.cc:348:execute$10
; yosys-smt2-witness {"offset": 0, "path": ["\\_witness_", "\\anyseq_auto_setundef_cc_348_execute_10"], "smtname": 0, "smtoffset": 0, "type": "seq", "width": 1}
(declare-fun |simple_immediate_assert_statement#0| (|simple_immediate_assert_statement_s|) (_ BitVec 1)) ; \_witness_.anyseq_auto_setundef_cc_348_execute_10
; yosys-smt2-wire _witness_.anyseq_auto_setundef_cc_348_execute_10 1
(define-fun |simple_immediate_assert_statement_n _witness_.anyseq_auto_setundef_cc_348_execute_10| ((state |simple_immediate_assert_statement_s|)) Bool (= ((_ extract 0 0) (|simple_immediate_assert_statement#0| state)) #b1))
(declare-fun |simple_immediate_assert_statement#1| (|simple_immediate_assert_statement_s|) Bool) ; \dummy
; yosys-smt2-input dummy 1
; yosys-smt2-wire dummy 1
; yosys-smt2-witness {"offset": 0, "path": ["\\dummy"], "smtname": "dummy", "smtoffset": 0, "type": "input", "width": 1}
(define-fun |simple_immediate_assert_statement_n dummy| ((state |simple_immediate_assert_statement_s|)) Bool (|simple_immediate_assert_statement#1| state))
(define-fun |simple_immediate_assert_statement#2| ((state |simple_immediate_assert_statement_s|)) Bool (|simple_immediate_assert_statement_is| state)) ; $auto$rtlil.cc:4203:Initstate$2
(define-fun |simple_immediate_assert_statement#3| ((state |simple_immediate_assert_statement_s|)) (_ BitVec 1) (bvand (|simple_immediate_assert_statement#0| state) (ite (|simple_immediate_assert_statement#2| state) #b1 #b0))) ; $auto$rtlil.cc:3369:And$4
; yosys-smt2-assert 0 _witness_.check_0 simple_immediate_assert_statement_pass.sv:6.9-6.19
(define-fun |simple_immediate_assert_statement_a 0| ((state |simple_immediate_assert_statement_s|)) Bool (or true (not (= ((_ extract 0 0) (|simple_immediate_assert_statement#3| state)) #b1)))) ; _witness_.check_0
(define-fun |simple_immediate_assert_statement_a| ((state |simple_immediate_assert_statement_s|)) Bool 
  (|simple_immediate_assert_statement_a 0| state)
)
(define-fun |simple_immediate_assert_statement_u| ((state |simple_immediate_assert_statement_s|)) Bool true)
(define-fun |simple_immediate_assert_statement_i| ((state |simple_immediate_assert_statement_s|)) Bool true)
(define-fun |simple_immediate_assert_statement_h| ((state |simple_immediate_assert_statement_s|)) Bool true)
(define-fun |simple_immediate_assert_statement_t| ((state |simple_immediate_assert_statement_s|) (next_state |simple_immediate_assert_statement_s|)) Bool true) ; end of module simple_immediate_assert_statement
; yosys-smt2-topmod simple_immediate_assert_statement
; end of yosys output
